
Log started (V12.6.3.0) Tue Jun  6 16:47:33 2017

New value for default parallel thread count: 1

Problem '/tmp/tmpqQTuN2.pyomo.lp' read.
Read time = 0.00 sec. (0.03 ticks)

Problem name         : /tmp/tmpqQTuN2.pyomo.lp
Objective sense      : Minimize
Variables            :     362  [Nneg: 326,  Binary: 35,  General Integer: 1]
Objective nonzeros   :       1
Linear constraints   :     135  [Less: 35,  Equal: 100]
  Nonzeros           :     996
  RHS nonzeros       :      45

Variables            : Min LB: 0.000000         Max UB: 1.000000       
Objective nonzeros   : Min   : 1.000000         Max   : 1.000000       
Linear constraints   :
  Nonzeros           : Min   : 1.000000         Max   : 22.68000       
  RHS nonzeros       : Min   : 0.2000000        Max   : 29.98000       
Tried aggregator 2 times.
MIP Presolve eliminated 50 rows and 210 columns.
MIP Presolve added 1 rows and 1 columns.
Aggregator did 18 substitutions.
Reduced MIP has 68 rows, 135 columns, and 357 nonzeros.
Reduced MIP has 27 binaries, 1 generals, 0 SOSs, and 0 indicators.
Presolve time = 0.00 sec. (0.51 ticks)
Found incumbent of value 29.000000 after 0.00 sec. (0.83 ticks)
Probing fixed 1 vars, tightened 2 bounds.
Probing time = 0.00 sec. (0.06 ticks)
Tried aggregator 1 time.
MIP Presolve eliminated 2 rows and 2 columns.
Reduced MIP has 66 rows, 133 columns, and 349 nonzeros.
Reduced MIP has 25 binaries, 1 generals, 0 SOSs, and 0 indicators.
Presolve time = 0.00 sec. (0.17 ticks)
Probing time = 0.00 sec. (0.04 ticks)
Clique table members: 11.
MIP emphasis: balance optimality and feasibility.
MIP search method: dynamic search.
Parallel mode: none, using 1 thread.
Root relaxation solution time = 0.00 sec. (0.47 ticks)

        Nodes                                         Cuts/
   Node  Left     Objective  IInf  Best Integer    Best Bound    ItCnt     Gap

*     0+    0                           29.0000        5.0000            82.76%
      0     0       10.6211    14       29.0000       10.6211       79   63.38%
*     0+    0                           18.0000       10.6211            40.99%
      0     0       13.1045    14       18.0000     Cuts: 102      205   27.20%
      0     0       14.0000     4       18.0000      Cuts: 69      271   22.22%
*     0+    0                           15.0000       14.0000             6.67%
*     0+    0                           14.0000       14.0000             0.00%
      0     0        cutoff             14.0000       14.0000      271    0.00%
Elapsed time = 0.01 sec. (8.09 ticks, tree = 0.01 MB, solutions = 4)

Clique cuts applied:  3
Cover cuts applied:  2
Implied bound cuts applied:  16
Flow cuts applied:  11
Mixed integer rounding cuts applied:  13
Lift and project cuts applied:  2

Root node processing (before b&c):
  Real time             =    0.01 sec. (8.11 ticks)
Sequential b&c:
  Real time             =    0.00 sec. (0.00 ticks)
                          ------------
Total (root+branch&cut) =    0.01 sec. (8.11 ticks)

Solution pool: 4 solutions saved.

MIP - Integer optimal solution:  Objective =  1.4000000000e+01
Solution time =    0.01 sec.  Iterations = 271  Nodes = 0
Deterministic time = 8.11 ticks  (590.06 ticks/sec)


Incumbent solution written to file '/tmp/tmpI8PQgE.cplex.sol'.

Log started (V12.6.3.0) Mon Jul 24 16:46:06 2017

New value for default parallel thread count: 1

Problem '/tmp/tmpOLZlUD.pyomo.lp' read.
Read time = 0.00 sec. (0.03 ticks)

Problem name         : /tmp/tmpOLZlUD.pyomo.lp
Objective sense      : Minimize
Variables            :     362  [Nneg: 326,  Binary: 35,  General Integer: 1]
Objective nonzeros   :       1
Linear constraints   :     135  [Less: 35,  Equal: 100]
  Nonzeros           :     996
  RHS nonzeros       :      45

Variables            : Min LB: 0.000000         Max UB: 1.000000       
Objective nonzeros   : Min   : 1.000000         Max   : 1.000000       
Linear constraints   :
  Nonzeros           : Min   : 1.000000         Max   : 22.68000       
  RHS nonzeros       : Min   : 0.2000000        Max   : 29.98000       
Tried aggregator 2 times.
MIP Presolve eliminated 50 rows and 210 columns.
MIP Presolve added 1 rows and 1 columns.
Aggregator did 18 substitutions.
Reduced MIP has 68 rows, 135 columns, and 357 nonzeros.
Reduced MIP has 27 binaries, 1 generals, 0 SOSs, and 0 indicators.
Presolve time = 0.00 sec. (0.51 ticks)
Found incumbent of value 29.000000 after 0.00 sec. (0.83 ticks)
Probing fixed 1 vars, tightened 2 bounds.
Probing time = 0.00 sec. (0.06 ticks)
Tried aggregator 1 time.
MIP Presolve eliminated 2 rows and 2 columns.
Reduced MIP has 66 rows, 133 columns, and 349 nonzeros.
Reduced MIP has 25 binaries, 1 generals, 0 SOSs, and 0 indicators.
Presolve time = 0.00 sec. (0.17 ticks)
Probing time = 0.00 sec. (0.04 ticks)
Clique table members: 11.
MIP emphasis: balance optimality and feasibility.
MIP search method: dynamic search.
Parallel mode: none, using 1 thread.
Root relaxation solution time = 0.00 sec. (0.47 ticks)

        Nodes                                         Cuts/
   Node  Left     Objective  IInf  Best Integer    Best Bound    ItCnt     Gap

*     0+    0                           29.0000        5.0000            82.76%
      0     0       10.6211    14       29.0000       10.6211       79   63.38%
*     0+    0                           18.0000       10.6211            40.99%
      0     0       13.1045    14       18.0000     Cuts: 102      205   27.20%
      0     0       14.0000     4       18.0000      Cuts: 69      271   22.22%
*     0+    0                           15.0000       14.0000             6.67%
*     0+    0                           14.0000       14.0000             0.00%
      0     0        cutoff             14.0000       14.0000      271    0.00%
Elapsed time = 0.01 sec. (8.09 ticks, tree = 0.01 MB, solutions = 4)

Clique cuts applied:  3
Cover cuts applied:  2
Implied bound cuts applied:  16
Flow cuts applied:  11
Mixed integer rounding cuts applied:  13
Lift and project cuts applied:  2

Root node processing (before b&c):
  Real time             =    0.01 sec. (8.11 ticks)
Sequential b&c:
  Real time             =    0.00 sec. (0.00 ticks)
                          ------------
Total (root+branch&cut) =    0.01 sec. (8.11 ticks)

Solution pool: 4 solutions saved.

MIP - Integer optimal solution:  Objective =  1.4000000000e+01
Solution time =    0.01 sec.  Iterations = 271  Nodes = 0
Deterministic time = 8.11 ticks  (812.73 ticks/sec)


Incumbent solution written to file '/tmp/tmpzUdUac.cplex.sol'.

Log started (V12.6.3.0) Mon Jul 24 16:59:00 2017

New value for default parallel thread count: 1

Problem '/tmp/tmpZNKqHg.pyomo.lp' read.
Read time = 0.00 sec. (0.03 ticks)

Problem name         : /tmp/tmpZNKqHg.pyomo.lp
Objective sense      : Minimize
Variables            :     362  [Nneg: 326,  Binary: 35,  General Integer: 1]
Objective nonzeros   :       1
Linear constraints   :     135  [Less: 35,  Equal: 100]
  Nonzeros           :     996
  RHS nonzeros       :      45

Variables            : Min LB: 0.000000         Max UB: 1.000000       
Objective nonzeros   : Min   : 1.000000         Max   : 1.000000       
Linear constraints   :
  Nonzeros           : Min   : 1.000000         Max   : 22.68000       
  RHS nonzeros       : Min   : 0.2000000        Max   : 29.98000       
Tried aggregator 2 times.
MIP Presolve eliminated 50 rows and 210 columns.
MIP Presolve added 1 rows and 1 columns.
Aggregator did 18 substitutions.
Reduced MIP has 68 rows, 135 columns, and 357 nonzeros.
Reduced MIP has 27 binaries, 1 generals, 0 SOSs, and 0 indicators.
Presolve time = 0.00 sec. (0.51 ticks)
Found incumbent of value 29.000000 after 0.00 sec. (0.83 ticks)
Probing fixed 1 vars, tightened 2 bounds.
Probing time = 0.00 sec. (0.06 ticks)
Tried aggregator 1 time.
MIP Presolve eliminated 2 rows and 2 columns.
Reduced MIP has 66 rows, 133 columns, and 349 nonzeros.
Reduced MIP has 25 binaries, 1 generals, 0 SOSs, and 0 indicators.
Presolve time = 0.00 sec. (0.17 ticks)
Probing time = 0.00 sec. (0.04 ticks)
Clique table members: 11.
MIP emphasis: balance optimality and feasibility.
MIP search method: dynamic search.
Parallel mode: none, using 1 thread.
Root relaxation solution time = 0.00 sec. (0.47 ticks)

        Nodes                                         Cuts/
   Node  Left     Objective  IInf  Best Integer    Best Bound    ItCnt     Gap

*     0+    0                           29.0000        5.0000            82.76%
      0     0       10.6211    14       29.0000       10.6211       79   63.38%
*     0+    0                           18.0000       10.6211            40.99%
      0     0       13.1045    14       18.0000     Cuts: 102      205   27.20%
      0     0       14.0000     4       18.0000      Cuts: 69      271   22.22%
*     0+    0                           15.0000       14.0000             6.67%
*     0+    0                           14.0000       14.0000             0.00%
      0     0        cutoff             14.0000       14.0000      271    0.00%
Elapsed time = 0.01 sec. (8.09 ticks, tree = 0.01 MB, solutions = 4)

Clique cuts applied:  3
Cover cuts applied:  2
Implied bound cuts applied:  16
Flow cuts applied:  11
Mixed integer rounding cuts applied:  13
Lift and project cuts applied:  2

Root node processing (before b&c):
  Real time             =    0.01 sec. (8.11 ticks)
Sequential b&c:
  Real time             =    0.00 sec. (0.00 ticks)
                          ------------
Total (root+branch&cut) =    0.01 sec. (8.11 ticks)

Solution pool: 4 solutions saved.

MIP - Integer optimal solution:  Objective =  1.4000000000e+01
Solution time =    0.01 sec.  Iterations = 271  Nodes = 0
Deterministic time = 8.11 ticks  (836.10 ticks/sec)


Incumbent solution written to file '/tmp/tmpp1Az1h.cplex.sol'.

Log started (V12.6.3.0) Wed Jul 26 16:03:18 2017

New value for default parallel thread count: 1

Problem '/tmp/tmpI9SOUP.pyomo.lp' read.
Read time = 0.00 sec. (0.03 ticks)

Problem name         : /tmp/tmpI9SOUP.pyomo.lp
Objective sense      : Minimize
Variables            :     362  [Nneg: 326,  Binary: 35,  General Integer: 1]
Objective nonzeros   :       1
Linear constraints   :     135  [Less: 35,  Equal: 100]
  Nonzeros           :     996
  RHS nonzeros       :      45

Variables            : Min LB: 0.000000         Max UB: 1.000000       
Objective nonzeros   : Min   : 1.000000         Max   : 1.000000       
Linear constraints   :
  Nonzeros           : Min   : 1.000000         Max   : 22.68000       
  RHS nonzeros       : Min   : 0.2000000        Max   : 29.98000       
Tried aggregator 2 times.
MIP Presolve eliminated 50 rows and 210 columns.
MIP Presolve added 1 rows and 1 columns.
Aggregator did 18 substitutions.
Reduced MIP has 68 rows, 135 columns, and 357 nonzeros.
Reduced MIP has 27 binaries, 1 generals, 0 SOSs, and 0 indicators.
Presolve time = 0.00 sec. (0.51 ticks)
Found incumbent of value 29.000000 after 0.00 sec. (0.83 ticks)
Probing fixed 1 vars, tightened 2 bounds.
Probing time = 0.00 sec. (0.06 ticks)
Tried aggregator 1 time.
MIP Presolve eliminated 2 rows and 2 columns.
Reduced MIP has 66 rows, 133 columns, and 349 nonzeros.
Reduced MIP has 25 binaries, 1 generals, 0 SOSs, and 0 indicators.
Presolve time = 0.00 sec. (0.17 ticks)
Probing time = 0.00 sec. (0.04 ticks)
Clique table members: 11.
MIP emphasis: balance optimality and feasibility.
MIP search method: dynamic search.
Parallel mode: none, using 1 thread.
Root relaxation solution time = 0.00 sec. (0.47 ticks)

        Nodes                                         Cuts/
   Node  Left     Objective  IInf  Best Integer    Best Bound    ItCnt     Gap

*     0+    0                           29.0000        5.0000            82.76%
      0     0       10.6211    14       29.0000       10.6211       79   63.38%
*     0+    0                           18.0000       10.6211            40.99%
      0     0       13.1045    14       18.0000     Cuts: 102      205   27.20%
      0     0       14.0000     4       18.0000      Cuts: 69      271   22.22%
*     0+    0                           15.0000       14.0000             6.67%
*     0+    0                           14.0000       14.0000             0.00%
      0     0        cutoff             14.0000       14.0000      271    0.00%
Elapsed time = 0.01 sec. (8.09 ticks, tree = 0.01 MB, solutions = 4)

Clique cuts applied:  3
Cover cuts applied:  2
Implied bound cuts applied:  16
Flow cuts applied:  11
Mixed integer rounding cuts applied:  13
Lift and project cuts applied:  2

Root node processing (before b&c):
  Real time             =    0.01 sec. (8.11 ticks)
Sequential b&c:
  Real time             =    0.00 sec. (0.00 ticks)
                          ------------
Total (root+branch&cut) =    0.01 sec. (8.11 ticks)

Solution pool: 4 solutions saved.

MIP - Integer optimal solution:  Objective =  1.4000000000e+01
Solution time =    0.01 sec.  Iterations = 271  Nodes = 0
Deterministic time = 8.11 ticks  (848.79 ticks/sec)


Incumbent solution written to file '/tmp/tmp_IFbcN.cplex.sol'.
